
     Program PWSCF v.6.7MaX starts on 11Aug2026 at 20:52:18 

     This program is part of the open-source Quantum ESPRESSO suite
     for quantum simulation of materials; please cite
         "P. Giannozzi et al., J. Phys.:Condens. Matter 21 395502 (2009);
         "P. Giannozzi et al., J. Phys.:Condens. Matter 29 465901 (2017);
          URL http://www.quantum-espresso.org", 
     in publications or presentations arising from this work. More details at
     http://www.quantum-espresso.org/quote

     Parallel version (MPI), running on     1 processors

     MPI processes distributed on     1 nodes
     Waiting for input...
     Reading input from standard input

     Current dimensions of program PWSCF are:
     Max number of different atomic species (ntypx) = 10
     Max number of k-points (npk) =  40000
     Max angular momentum in pseudopotentials (lmaxx) =  3

     Subspace diagonalization in iterative solution of the eigenvalue problem:
     a serial algorithm will be used


     G-vector sticks info
     --------------------
     sticks:   dense  smooth     PW     G-vecs:    dense   smooth      PW
     Sum         151     151     55                 4721     4721     957



     bravais-lattice index     =            4
     lattice parameter (alat)  =       4.6620  a.u.
     unit-cell volume          =     277.5410 (a.u.)^3
     number of atoms/cell      =            4
     number of atomic types    =            1
     number of electrons       =        16.00
     number of Kohn-Sham states=            8
     kinetic-energy cutoff     =      25.0000  Ry
     charge density cutoff     =     100.0000  Ry
     scf convergence threshold =      1.0E-06
     mixing beta               =       0.7000
     number of iterations used =            8  plain     mixing
     Exchange-correlation= SLA  PZ   NOGX NOGC
                           (   1   1   0   0   0   0   0)

     celldm(1)=   4.661954  celldm(2)=   0.000000  celldm(3)=   3.162951
     celldm(4)=   0.000000  celldm(5)=   0.000000  celldm(6)=   0.000000

     crystal axes: (cart. coord. in units of alat)
               a(1) = (   1.000000   0.000000   0.000000 )  
               a(2) = (  -0.500000   0.866025   0.000000 )  
               a(3) = (   0.000000   0.000000   3.162951 )  

     reciprocal axes: (cart. coord. in units 2 pi/alat)
               b(1) = (  1.000000  0.577350 -0.000000 )  
               b(2) = (  0.000000  1.154701  0.000000 )  
               b(3) = (  0.000000 -0.000000  0.316160 )  


     PseudoPot. # 1 for C  read from file:
     ./C.pz-vbc.UPF
     MD5 check sum: f697e42eaa1e52b77fcf7925dd36a1dd
     Pseudo is Norm-conserving, Zval =  4.0
     Generated by new atomic code, or converted to UPF format
     Using radial grid of  269 points,  1 beta functions with: 
                l(1) =   0

     atomic species   valence    mass     pseudopotential
        C              4.00    12.01100     C ( 1.00)

      8 Sym. Ops., with inversion, found ( 4 have fractional translation)



   Cartesian axes

     site n.     atom                  positions (alat units)
         1           C   tau(   1) = (   0.0000000   0.0000000   0.7907377  )
         2           C   tau(   2) = (   0.0000000   0.0000000   2.3722132  )
         3           C   tau(   3) = (  -0.0000500   0.5773791   0.7907377  )
         4           C   tau(   4) = (   0.5000500   0.2886463   2.3722132  )

     number of k points=    21
                       cart. coord. in units 2pi/alat
        k(    1) = (   0.0000000   0.0000000   0.0000000), wk =   0.0312500
        k(    2) = (   0.0000000   0.0000000   0.0790401), wk =   0.0625000
        k(    3) = (   0.0000000   0.0000000  -0.1580802), wk =   0.0312500
        k(    4) = (   0.0000000   0.2886751   0.0000000), wk =   0.1250000
        k(    5) = (   0.0000000   0.2886751   0.0790401), wk =   0.2500000
        k(    6) = (   0.0000000   0.2886751  -0.1580802), wk =   0.1250000
        k(    7) = (   0.0000000  -0.5773503   0.0000000), wk =   0.0625000
        k(    8) = (   0.0000000  -0.5773503   0.0790401), wk =   0.1250000
        k(    9) = (   0.0000000  -0.5773503  -0.1580802), wk =   0.0625000
        k(   10) = (   0.2500000   0.4330127   0.0000000), wk =   0.0625000
        k(   11) = (   0.2500000   0.4330127   0.0790401), wk =   0.1250000
        k(   12) = (   0.2500000   0.4330127  -0.1580802), wk =   0.0625000
        k(   13) = (   0.2500000  -0.1443376   0.0000000), wk =   0.0625000
        k(   14) = (   0.2500000  -0.1443376  -0.0790401), wk =   0.1250000
        k(   15) = (   0.2500000  -0.1443376   0.1580802), wk =   0.0625000
        k(   16) = (  -0.5000000   0.2886751   0.0000000), wk =   0.0312500
        k(   17) = (  -0.5000000   0.2886751  -0.0790401), wk =   0.0625000
        k(   18) = (  -0.5000000   0.2886751   0.1580802), wk =   0.0312500
        k(   19) = (  -0.2500000   0.4330127   0.0000000), wk =   0.1250000
        k(   20) = (  -0.2500000   0.4330127  -0.0790401), wk =   0.2500000
        k(   21) = (  -0.2500000   0.4330127   0.1580802), wk =   0.1250000

     Dense  grid:     4721 G-vectors     FFT dimensions: (  15,  15,  48)

     Estimated max dynamical RAM per process >       4.62 MB

     Initial potential from superposition of free atoms

     starting charge   15.99989, renormalised to   16.00000
     Starting wfcs are   16 randomized atomic wfcs

     total cpu time spent up to now is        0.8 secs

     Self-consistent Calculation

     iteration #  1     ecut=    25.00 Ry     beta= 0.70
     Davidson diagonalization with overlap
     ethr =  1.00E-02,  avg # of iterations =  2.0

     total cpu time spent up to now is        1.4 secs

     total energy              =     -44.79665479 Ry
     estimated scf accuracy    <       0.29702911 Ry

     iteration #  2     ecut=    25.00 Ry     beta= 0.70
     Davidson diagonalization with overlap
     ethr =  1.86E-03,  avg # of iterations =  2.0

     total cpu time spent up to now is        2.0 secs

     total energy              =     -44.83269959 Ry
     estimated scf accuracy    <       0.00572213 Ry

     iteration #  3     ecut=    25.00 Ry     beta= 0.70
     Davidson diagonalization with overlap
     ethr =  3.58E-05,  avg # of iterations =  1.9

     total cpu time spent up to now is        2.6 secs

     total energy              =     -44.83316116 Ry
     estimated scf accuracy    <       0.00034531 Ry

     iteration #  4     ecut=    25.00 Ry     beta= 0.70
     Davidson diagonalization with overlap
     ethr =  2.16E-06,  avg # of iterations =  2.1

     total cpu time spent up to now is        3.2 secs

     total energy              =     -44.83320476 Ry
     estimated scf accuracy    <       0.00000111 Ry

     iteration #  5     ecut=    25.00 Ry     beta= 0.70
     Davidson diagonalization with overlap
     ethr =  6.97E-09,  avg # of iterations =  5.2

     total cpu time spent up to now is        4.2 secs

     End of self-consistent calculation

          k = 0.0000 0.0000 0.0000 (   599 PWs)   bands (ev):

   -14.1598 -14.0749  -2.6996  -1.6735   2.5370   2.5415   2.5896   2.5940

          k = 0.0000 0.0000 0.0790 (   587 PWs)   bands (ev):

   -14.1361 -14.0854  -2.5669  -1.8649   2.5496   2.5541   2.6210   2.6255

          k = 0.0000 0.0000-0.1581 (   600 PWs)   bands (ev):

   -14.1192 -14.1192  -2.2505  -2.2505   2.5236   2.5236   2.5280   2.5280

          k = 0.0000 0.2887 0.0000 (   582 PWs)   bands (ev):

   -12.6715 -12.5884  -2.0064  -1.9838  -0.8946   0.0338   0.4736   0.5307

          k = 0.0000 0.2887 0.0790 (   589 PWs)   bands (ev):

   -12.6611 -12.5924  -2.0024  -1.9954  -0.7812  -0.1487   0.4667   0.4807

          k = 0.0000 0.2887-0.1581 (   580 PWs)   bands (ev):

   -12.6217 -12.6217  -1.9639  -1.9639  -0.4551  -0.4551   0.4824   0.4824

          k = 0.0000-0.5774 0.0000 (   578 PWs)   bands (ev):

    -8.8178  -8.8024  -7.9223  -7.9006  -0.9523  -0.8299   3.0863   3.4079

          k = 0.0000-0.5774 0.0790 (   588 PWs)   bands (ev):

    -8.8447  -8.8293  -7.9461  -7.9300  -0.9203  -0.9120   3.1361   3.3567

          k = 0.0000-0.5774-0.1581 (   596 PWs)   bands (ev):

    -8.8465  -8.8465  -7.9344  -7.9344  -0.9223  -0.9223   3.1739   3.1739

          k = 0.2500 0.4330 0.0000 (   586 PWs)   bands (ev):

    -9.8404  -9.7587  -5.1025  -5.0924  -3.5967  -3.5790   2.4756   3.1399

          k = 0.2500 0.4330 0.0790 (   583 PWs)   bands (ev):

    -9.8485  -9.7637  -5.1043  -5.1013  -3.5861  -3.5785   2.5980   3.0393

          k = 0.2500 0.4330-0.1581 (   584 PWs)   bands (ev):

    -9.8104  -9.8104  -5.1099  -5.1099  -3.5994  -3.5994   2.7963   2.7963

          k = 0.2500-0.1443 0.0000 (   582 PWs)   bands (ev):

   -12.6715 -12.5884  -2.0081  -1.9855  -0.8945   0.0340   0.4757   0.5328

          k = 0.2500-0.1443-0.0790 (   589 PWs)   bands (ev):

   -12.6612 -12.5924  -2.0040  -1.9971  -0.7810  -0.1485   0.4688   0.4827

          k = 0.2500-0.1443 0.1581 (   580 PWs)   bands (ev):

   -12.6217 -12.6217  -1.9656  -1.9656  -0.4549  -0.4549   0.4844   0.4844

          k =-0.5000 0.2887 0.0000 (   578 PWs)   bands (ev):

    -8.8170  -8.8015  -7.9243  -7.9023  -0.9507  -0.8283   3.0878   3.4093

          k =-0.5000 0.2887-0.0790 (   588 PWs)   bands (ev):

    -8.8439  -8.8285  -7.9479  -7.9318  -0.9187  -0.9104   3.1376   3.3582

          k =-0.5000 0.2887 0.1581 (   596 PWs)   bands (ev):

    -8.8457  -8.8457  -7.9363  -7.9363  -0.9207  -0.9207   3.1754   3.1754

          k =-0.2500 0.4330 0.0000 (   586 PWs)   bands (ev):

    -9.8404  -9.7587  -5.1040  -5.0939  -3.5950  -3.5774   2.4762   3.1405

          k =-0.2500 0.4330-0.0790 (   583 PWs)   bands (ev):

    -9.8486  -9.7637  -5.1057  -5.1028  -3.5844  -3.5769   2.5985   3.0399

          k =-0.2500 0.4330 0.1581 (   584 PWs)   bands (ev):

    -9.8104  -9.8104  -5.1114  -5.1114  -3.5977  -3.5977   2.7969   2.7969

     highest occupied level (ev):     3.4093

!    total energy              =     -44.83320871 Ry
     estimated scf accuracy    <       0.00000013 Ry

     The total energy is the sum of the following terms:
     one-electron contribution =     -22.77525093 Ry
     hartree contribution      =      18.21254021 Ry
     xc contribution           =     -13.76096961 Ry
     ewald contribution        =     -26.50952837 Ry

     convergence has been achieved in   5 iterations

     Writing output data file ./pwscf.save/

     init_run     :      0.52s CPU      0.69s WALL (       1 calls)
     electrons    :      3.01s CPU      3.40s WALL (       1 calls)

     Called by init_run:
     wfcinit      :      0.45s CPU      0.57s WALL (       1 calls)
     potinit      :      0.00s CPU      0.03s WALL (       1 calls)
     hinit0       :      0.05s CPU      0.07s WALL (       1 calls)

     Called by electrons:
     c_bands      :      2.68s CPU      3.02s WALL (       5 calls)
     sum_band     :      0.29s CPU      0.33s WALL (       5 calls)
     v_of_rho     :      0.01s CPU      0.02s WALL (       6 calls)
     mix_rho      :      0.01s CPU      0.02s WALL (       5 calls)

     Called by c_bands:
     init_us_2    :      0.03s CPU      0.03s WALL (     231 calls)
     cegterg      :      2.65s CPU      2.99s WALL (     105 calls)

     Called by *egterg:
     cdiaghg      :      0.15s CPU      0.18s WALL (     383 calls)
     h_psi        :      1.96s CPU      2.26s WALL (     404 calls)
     g_psi        :      0.03s CPU      0.03s WALL (     278 calls)

     Called by h_psi:
     h_psi:calbec :      0.06s CPU      0.07s WALL (     404 calls)
     vloc_psi     :      1.81s CPU      2.07s WALL (     404 calls)
     add_vuspsi   :      0.06s CPU      0.07s WALL (     404 calls)

     General routines
     calbec       :      0.05s CPU      0.06s WALL (     404 calls)
     fft          :      0.02s CPU      0.03s WALL (      17 calls)
     ffts         :      0.00s CPU      0.00s WALL (       5 calls)
     fftw         :      1.63s CPU      1.88s WALL (    6512 calls)

     Parallel routines

     PWSCF        :      3.67s CPU      4.45s WALL


   This run was terminated on:  20:52:23  11Aug2026            

=------------------------------------------------------------------------------=
   JOB DONE.
=------------------------------------------------------------------------------=
